decompositions/zmienne_worki/g_100_95_10.td
s td 71 4 100
b 1 67 68 
b 2 9 
b 3 97 
b 4 53 84 
b 5 37 74 78 
b 6 48 
b 7 15 
b 8 7 
b 9 21 64 
b 10 2 
b 11 93 
b 12 57 65 
b 13 62 
b 14 86 
b 15 3 
b 16 27 
b 17 44 
b 18 75 
b 19 26 34 
b 20 92 
b 21 54 85 
b 22 43 
b 23 6 56 
b 24 22 
b 25 14 
b 26 60 
b 27 49 
b 28 11 
b 29 17 32 
b 30 70 
b 31 52 90 
b 32 30 
b 33 41 
b 34 73 
b 35 24 94 
b 36 83 
b 37 29 
b 38 45 58 
b 39 8 25 31 38 
b 40 35 98 
b 41 19 63 
b 42 51 
b 43 23 
b 44 76 87 
b 45 12 66 
b 46 71 
b 47 28 69 
b 48 61 
b 49 39 
b 50 42 55 
b 51 33 
b 52 72 88 
b 53 10 95 
b 54 99 
b 55 36 50 
b 56 46 
b 57 79 
b 58 1 13 
b 59 16 
b 60 20 
b 61 5 80 
b 62 40 96 
b 63 18 
b 64 4 
b 65 82 89 
b 66 59 
b 67 47 
b 68 91 
b 69 81 
b 70 100 
b 71 77 
1 2
1 3
2 4
3 5
4 6
5 7
6 8
7 9
8 10
9 11
10 12
11 13
12 14
13 15
14 16
15 17
16 18
17 19
18 20
19 21
20 22
21 23
22 24
23 25
24 26
25 27
26 28
27 29
28 30
29 31
30 32
31 33
32 34
33 35
34 36
35 37
36 38
37 39
38 40
40 41
41 42
42 43
43 44
44 45
45 46
46 47
47 48
48 49
49 50
50 51
51 52
52 53
53 54
54 55
55 56
56 57
57 58
58 59
59 60
60 61
61 62
62 63
63 64
64 65
65 66
66 67
67 68
68 69
69 70
70 71
