graphs/pace/raport/zmienne_worki/g_100_95_10.gr
p tw 100 33
82 89
53 84
36 50
10 95
19 63
12 66
40 96
8 25
8 31
8 38
25 31
25 38
31 38
35 98
1 13
67 68
72 88
21 64
76 87
17 32
52 90
28 69
54 85
45 58
6 56
24 94
57 65
5 80
37 74
37 78
74 78
42 55
26 34
